p edge 40 68 20
v 3 5 8 30
v 2 21 29
v 2 12 23
v 2 16 38
v 3 4 6 25
v 2 17 36
v 1 18
v 1 37
v 1 27
v 3 7 15 32
v 1 34
v 1 40
v 1 20
v 2 3 31
v 4 1 2 11 22
v 1 24
v 2 10 26
v 4 14 19 28 39
v 1 33
v 3 9 13 35
e 1 12
e 1 31
e 3 19
e 4 5
e 4 6
e 4 8
e 4 11
e 4 24
e 4 27
e 4 36
e 5 14
e 5 19
e 5 29
e 5 34
e 5 37
e 6 18
e 6 23
e 7 8
e 7 11
e 7 17
e 7 26
e 7 27
e 8 13
e 8 39
e 9 11
e 9 28
e 9 31
e 10 28
e 11 15
e 11 18
e 12 23
e 13 35
e 13 38
e 14 17
e 14 22
e 14 23
e 14 25
e 14 29
e 14 31
e 15 37
e 16 21
e 16 36
e 16 40
e 18 30
e 18 31
e 18 33
e 18 40
e 19 22
e 19 25
e 19 40
e 21 26
e 21 32
e 21 33
e 21 38
e 21 40
e 22 38
e 24 40
e 26 32
e 27 33
e 29 35
e 31 35
e 31 39
e 31 40
e 32 34
e 32 36
e 34 39
e 35 40
e 36 37
